<?xml version = "1.0" standalone="yes"?>
<!-- This file has been generated by DOcplex version 2.23.222  -->
<CPLEXSolution version="1.0">
 <header
   problemName="CVRP"
   objectiveValue="8398.53"
  />
 <variables>
  <variable name="x_0_2" index="1" value="1.00000"/>
  <variable name="x_0_3" index="2" value="1.00000"/>
  <variable name="x_0_7" index="6" value="1.00000"/>
  <variable name="x_0_8" index="7" value="1.00000"/>
  <variable name="x_0_10" index="9" value="1.00000"/>
  <variable name="x_0_12" index="11" value="1.00000"/>
  <variable name="x_1_0" index="13" value="1.00000"/>
  <variable name="x_2_5" index="30" value="1.00000"/>
  <variable name="x_3_9" index="47" value="1.00000"/>
  <variable name="x_4_0" index="52" value="1.00000"/>
  <variable name="x_5_0" index="65" value="1.00000"/>
  <variable name="x_6_11" index="88" value="1.00000"/>
  <variable name="x_7_6" index="97" value="1.00000"/>
  <variable name="x_8_4" index="108" value="1.00000"/>
  <variable name="x_9_0" index="117" value="1.00000"/>
  <variable name="x_10_1" index="131" value="1.00000"/>
  <variable name="x_11_0" index="143" value="1.00000"/>
  <variable name="x_12_13" index="168" value="1.00000"/>
  <variable name="x_13_0" index="169" value="1.00000"/>
  <variable name="u_1" index="182" value="56.00000"/>
  <variable name="u_2" index="183" value="30.00000"/>
  <variable name="u_3" index="184" value="29.00000"/>
  <variable name="u_4" index="185" value="62.00000"/>
  <variable name="u_5" index="186" value="59.00000"/>
  <variable name="u_6" index="187" value="43.00000"/>
  <variable name="u_7" index="188" value="13.00000"/>
  <variable name="u_8" index="189" value="57.00000"/>
  <variable name="u_9" index="190" value="60.00000"/>
  <variable name="u_10" index="191" value="53.00000"/>
  <variable name="u_11" index="192" value="61.00000"/>
  <variable name="u_12" index="193" value="45.00000"/>
  <variable name="u_13" index="194" value="62.00000"/>
 </variables>
</CPLEXSolution>
